(set-logic HORN)
(set-info :source |
    Benchmark: C_VC
    Output by Princess (http://www.philipp.ruemmer.org/princess.shtml)
|)
(set-info :status sat)
(declare-heap Heap Addr HeapObject
 defObj
 ((HeapObject 0) (S 0)) (
  (
   (O_Int (getInt Int))
   (O_UInt (getUInt Int))
   (O_Addr (getAddr Addr))
   (O_S (getS S))
   (defObj)
  )
  (
   (S (n Addr))
  )
))
(declare-fun inv_main15 (Heap AddrRange Int Int AddrRange Int Int Addr) Bool)
(declare-fun inv_main18 (Heap AddrRange Int Int) Bool)
(declare-fun inv_main24 (Heap AddrRange Int Int) Bool)
(declare-fun inv_main27 (Heap AddrRange Int Int) Bool)
(declare-fun inv_main5 (Heap AddrRange Int Int) Bool)
(assert (forall ((var0 Int) (var1 Int) (var2 AddrRange) (var3 S) (var4 Heap) (var5 Heap)) (or (not (and (= var5 emptyHeap) (and (= var4 (newBatchHeap (batchAlloc emptyHeap (O_S var3) 100000))) (= var2 (newAddrRange (batchAlloc emptyHeap (O_S var3) 100000)))))) (inv_main5 var4 var2 var1 var0))))
(assert (forall ((var0 Int) (var1 AddrRange) (var2 Heap) (var3 Addr) (var4 Int) (var5 Int) (var6 Int) (var7 AddrRange) (var8 Heap)) (or (not (and (inv_main18 var8 var7 var6 var5) (and (not (<= 0 (+ (+ 100000 (* (- 1) (+ var4 1))) (- 1)))) (and (and (not (= var3 nullAddr)) (is-O_S (read var8 (nthAddrRange var7 var6)))) (and (and (and (and (= var2 var8) (= var1 var7)) (= var4 var6)) (= var0 var5)) (= var3 (n (getS (read var8 (nthAddrRange var7 var6)))))))))) (inv_main24 var2 var1 0 1))))
(assert (forall ((var0 Int) (var1 AddrRange) (var2 Heap) (var3 Addr) (var4 Int) (var5 Int) (var6 Int) (var7 AddrRange) (var8 Heap)) (or (not (and (inv_main18 var8 var7 var6 var5) (and (not (<= 0 (+ (+ 100000 (* (- 1) (+ var4 1))) (- 1)))) (and (and (= var3 nullAddr) (is-O_S (read var8 (nthAddrRange var7 var6)))) (and (and (and (and (= var2 var8) (= var1 var7)) (= var4 var6)) (= var0 var5)) (= var3 (n (getS (read var8 (nthAddrRange var7 var6)))))))))) (inv_main24 var2 var1 0 var0))))
(assert (forall ((var0 Int) (var1 Int) (var2 AddrRange) (var3 Heap)) (or (not (and (inv_main27 var3 var2 var1 var0) (is-O_S (read var3 (nthAddrRange var2 var1))))) (inv_main24 var3 var2 (+ var1 1) var0))))
(assert (forall ((var0 Int) (var1 Int) (var2 AddrRange) (var3 Heap)) (or (not (and (inv_main24 var3 var2 var1 var0) (and (not (= var0 0)) (<= 0 (+ (+ 100000 (* (- 1) var1)) (- 1)))))) (inv_main24 var3 var2 (+ var1 1) var0))))
(assert (forall ((var0 Int) (var1 Int) (var2 AddrRange) (var3 Heap)) (or (not (and (inv_main24 var3 var2 var1 var0) (and (= var0 0) (<= 0 (+ (+ 100000 (* (- 1) var1)) (- 1)))))) (inv_main27 var3 var2 var1 var0))))
(assert (forall ((var0 AddrRange) (var1 Int) (var2 Int) (var3 AddrRange) (var4 Heap) (var5 Int) (var6 Int) (var7 Addr) (var8 Int) (var9 Int) (var10 AddrRange) (var11 Int) (var12 Int) (var13 AddrRange) (var14 Heap)) (or (not (and (inv_main15 var14 var13 var12 var11 var10 var9 var8 var7) (and (not (<= 0 (+ (+ var6 (* (- 1) (+ var5 1))) (- 1)))) (and (and (is-O_S (read var14 (nthAddrRange var10 var8))) (is-O_S (read var14 (nthAddrRange var10 var8)))) (and (and (and (and (and (and (= var4 (write var14 (nthAddrRange var10 var8) (O_S (S var7)))) (= var3 var13)) (= var2 var12)) (= var1 var11)) (= var0 var10)) (= var6 var9)) (= var5 var8)))))) (inv_main18 var4 var3 0 var1))))
(assert (forall ((var0 Int) (var1 AddrRange) (var2 Heap) (var3 Addr) (var4 Int) (var5 Int) (var6 Int) (var7 AddrRange) (var8 Heap)) (or (not (and (inv_main18 var8 var7 var6 var5) (and (<= 0 (+ (+ 100000 (* (- 1) (+ var4 1))) (- 1))) (and (and (not (= var3 nullAddr)) (is-O_S (read var8 (nthAddrRange var7 var6)))) (and (and (and (and (= var2 var8) (= var1 var7)) (= var4 var6)) (= var0 var5)) (= var3 (n (getS (read var8 (nthAddrRange var7 var6)))))))))) (inv_main18 var2 var1 (+ var4 1) 1))))
(assert (forall ((var0 Int) (var1 AddrRange) (var2 Heap) (var3 Addr) (var4 Int) (var5 Int) (var6 Int) (var7 AddrRange) (var8 Heap)) (or (not (and (inv_main18 var8 var7 var6 var5) (and (<= 0 (+ (+ 100000 (* (- 1) (+ var4 1))) (- 1))) (and (and (= var3 nullAddr) (is-O_S (read var8 (nthAddrRange var7 var6)))) (and (and (and (and (= var2 var8) (= var1 var7)) (= var4 var6)) (= var0 var5)) (= var3 (n (getS (read var8 (nthAddrRange var7 var6)))))))))) (inv_main18 var2 var1 (+ var4 1) var0))))
(assert (forall ((var0 Int) (var1 AddrRange) (var2 Int) (var3 Int) (var4 AddrRange) (var5 Heap) (var6 Int) (var7 Int) (var8 Addr) (var9 Int) (var10 Int) (var11 AddrRange) (var12 Int) (var13 Int) (var14 AddrRange) (var15 Heap)) (or (not (and (inv_main15 var15 var14 var13 var12 var11 var10 var9 var8) (and (<= 0 (+ (+ var7 (* (- 1) (+ var6 1))) (- 1))) (and (and (is-O_S (read var15 (nthAddrRange var11 var9))) (is-O_S (read var15 (nthAddrRange var11 var9)))) (and (and (and (and (and (and (= var5 (write var15 (nthAddrRange var11 var9) (O_S (S var8)))) (= var4 var14)) (= var3 var13)) (= var2 var12)) (= var1 var11)) (= var7 var10)) (= var6 var9)))))) (inv_main15 (newHeap (alloc var5 (O_Int var0))) var4 var3 var2 var1 var7 (+ var6 1) (newAddr (alloc var5 (O_Int var0)))))))
(assert (forall ((var0 Int) (var1 Int) (var2 Int) (var3 AddrRange) (var4 Heap)) (or (not (inv_main5 var4 var3 var2 var1)) (inv_main15 (newHeap (alloc var4 (O_Int var0))) var3 var2 0 var3 100000 0 (newAddr (alloc var4 (O_Int var0)))))))
(assert (forall ((var0 Addr) (var1 Int) (var2 Int) (var3 AddrRange) (var4 Int) (var5 Int) (var6 AddrRange) (var7 Heap)) (not (and (inv_main15 var7 var6 var5 var4 var3 var2 var1 var0) (not (is-O_S (read var7 (nthAddrRange var3 var1))))))))
(assert (forall ((var0 Addr) (var1 Int) (var2 Int) (var3 AddrRange) (var4 Int) (var5 Int) (var6 AddrRange) (var7 Heap)) (not (and (inv_main15 var7 var6 var5 var4 var3 var2 var1 var0) (and (is-O_S (read var7 (nthAddrRange var3 var1))) (not (within var3 (nthAddrRange var3 var1))))))))
(assert (forall ((var0 Addr) (var1 Int) (var2 Int) (var3 AddrRange) (var4 Int) (var5 Int) (var6 AddrRange) (var7 Heap)) (not (and (inv_main15 var7 var6 var5 var4 var3 var2 var1 var0) (and (is-O_S (read var7 (nthAddrRange var3 var1))) (not (is-O_S (read var7 (nthAddrRange var3 var1)))))))))
(assert (forall ((var0 Int) (var1 Int) (var2 AddrRange) (var3 Heap)) (not (and (inv_main18 var3 var2 var1 var0) (not (is-O_S (read var3 (nthAddrRange var2 var1))))))))
(assert (forall ((var0 Int) (var1 Int) (var2 AddrRange) (var3 Heap)) (not (and (inv_main18 var3 var2 var1 var0) (and (is-O_S (read var3 (nthAddrRange var2 var1))) (not (within var2 (nthAddrRange var2 var1))))))))
(assert (forall ((var0 Int) (var1 Int) (var2 AddrRange) (var3 Heap)) (not (and (inv_main27 var3 var2 var1 var0) (not (is-O_S (read var3 (nthAddrRange var2 var1))))))))
(assert (forall ((var0 Int) (var1 Int) (var2 AddrRange) (var3 Heap)) (not (and (inv_main27 var3 var2 var1 var0) (not (within var2 (nthAddrRange var2 var1)))))))
(assert (forall ((var0 Int) (var1 Int) (var2 AddrRange) (var3 Heap)) (not (and (inv_main27 var3 var2 var1 var0) (not (is-O_S (read var3 (nthAddrRange var2 var1))))))))
(assert (forall ((var0 Int) (var1 Int) (var2 AddrRange) (var3 Heap)) (not (and (inv_main27 var3 var2 var1 var0) (and (is-O_S (read var3 (nthAddrRange var2 var1))) (not (within var2 (nthAddrRange var2 var1))))))))
(assert (forall ((var0 Int) (var1 Int) (var2 AddrRange) (var3 Heap)) (not (and (inv_main27 var3 var2 var1 var0) (and (is-O_S (read var3 (nthAddrRange var2 var1))) (not (= (n (getS (read var3 (nthAddrRange var2 var1)))) nullAddr)))))))
(check-sat)
